p cnf 386 460
7 -2 15 21 22 0
7 -2 15 21 -22 0
7 -2 15 -21 23 0
7 -2 15 -21 -23 0
-16 -6 -3 24 25 0
-16 -6 -3 24 -25 0
-16 -6 -3 -24 26 0
-16 -6 -3 -24 -26 0
-15 -2 10 27 28 0
-15 -2 10 27 -28 0
-15 -2 10 -27 29 0
-15 -2 10 -27 -29 0
-7 -15 -6 30 31 0
-7 -15 -6 30 -31 0
-7 -15 -6 -30 32 0
-7 -15 -6 -30 -32 0
6 4 -2 33 34 0
6 4 -2 33 -34 0
6 4 -2 -33 35 0
6 4 -2 -33 -35 0
-19 12 -18 36 37 0
-19 12 -18 36 -37 0
-19 12 -18 -36 38 0
-19 12 -18 -36 -38 0
2 -16 -18 39 40 0
2 -16 -18 39 -40 0
2 -16 -18 -39 41 0
2 -16 -18 -39 -41 0
16 6 -13 42 43 0
16 6 -13 42 -43 0
16 6 -13 -42 44 0
16 6 -13 -42 -44 0
16 7 5 45 46 0
16 7 5 45 -46 0
16 7 5 -45 47 0
16 7 5 -45 -47 0
-18 13 4 48 49 0
-18 13 4 48 -49 0
-18 13 4 -48 50 0
-18 13 4 -48 -50 0
-16 -20 1 51 52 0
-16 -20 1 51 -52 0
-16 -20 1 -51 53 0
-16 -20 1 -51 -53 0
6 -13 17 54 55 0
6 -13 17 54 -55 0
6 -13 17 -54 56 0
6 -13 17 -54 -56 0
-14 -13 -6 57 58 0
-14 -13 -6 57 -58 0
-14 -13 -6 -57 59 0
-14 -13 -6 -57 -59 0
13 1 -14 60 61 0
13 1 -14 60 -61 0
13 1 -14 -60 62 0
13 1 -14 -60 -62 0
20 -5 11 63 64 0
20 -5 11 63 -64 0
20 -5 11 -63 65 0
20 -5 11 -63 -65 0
-20 -15 19 66 67 0
-20 -15 19 66 -67 0
-20 -15 19 -66 68 0
-20 -15 19 -66 -68 0
-4 -12 -7 69 70 0
-4 -12 -7 69 -70 0
-4 -12 -7 -69 71 0
-4 -12 -7 -69 -71 0
-13 12 -5 72 73 0
-13 12 -5 72 -73 0
-13 12 -5 -72 74 0
-13 12 -5 -72 -74 0
-4 -5 1 75 76 0
-4 -5 1 75 -76 0
-4 -5 1 -75 77 0
-4 -5 1 -75 -77 0
-8 -11 -6 78 79 0
-8 -11 -6 78 -79 0
-8 -11 -6 -78 80 0
-8 -11 -6 -78 -80 0
3 11 15 81 82 0
3 11 15 81 -82 0
3 11 15 -81 83 0
3 11 15 -81 -83 0
5 -1 11 84 85 0
5 -1 11 84 -85 0
5 -1 11 -84 86 0
5 -1 11 -84 -86 0
17 -11 -14 87 88 0
17 -11 -14 87 -88 0
17 -11 -14 -87 89 0
17 -11 -14 -87 -89 0
10 -1 -14 90 91 0
10 -1 -14 90 -91 0
10 -1 -14 -90 92 0
10 -1 -14 -90 -92 0
-14 -3 1 93 94 0
-14 -3 1 93 -94 0
-14 -3 1 -93 95 0
-14 -3 1 -93 -95 0
-13 4 15 96 97 0
-13 4 15 96 -97 0
-13 4 15 -96 98 0
-13 4 15 -96 -98 0
19 -10 5 99 100 0
19 -10 5 99 -100 0
19 -10 5 -99 101 0
19 -10 5 -99 -101 0
-19 -10 14 102 103 0
-19 -10 14 102 -103 0
-19 -10 14 -102 104 0
-19 -10 14 -102 -104 0
-6 -7 10 105 106 0
-6 -7 10 105 -106 0
-6 -7 10 -105 107 0
-6 -7 10 -105 -107 0
-15 -7 -4 108 109 0
-15 -7 -4 108 -109 0
-15 -7 -4 -108 110 0
-15 -7 -4 -108 -110 0
15 10 2 111 112 0
15 10 2 111 -112 0
15 10 2 -111 113 0
15 10 2 -111 -113 0
-13 -2 16 114 115 0
-13 -2 16 114 -115 0
-13 -2 16 -114 116 0
-13 -2 16 -114 -116 0
-20 10 -19 117 118 0
-20 10 -19 117 -118 0
-20 10 -19 -117 119 0
-20 10 -19 -117 -119 0
3 -8 -12 120 121 0
3 -8 -12 120 -121 0
3 -8 -12 -120 122 0
3 -8 -12 -120 -122 0
-1 -2 -17 123 124 0
-1 -2 -17 123 -124 0
-1 -2 -17 -123 125 0
-1 -2 -17 -123 -125 0
-11 -7 16 126 127 0
-11 -7 16 126 -127 0
-11 -7 16 -126 128 0
-11 -7 16 -126 -128 0
12 18 9 129 130 0
12 18 9 129 -130 0
12 18 9 -129 131 0
12 18 9 -129 -131 0
-12 5 2 132 133 0
-12 5 2 132 -133 0
-12 5 2 -132 134 0
-12 5 2 -132 -134 0
1 -3 17 135 136 0
1 -3 17 135 -136 0
1 -3 17 -135 137 0
1 -3 17 -135 -137 0
8 -19 6 138 139 0
8 -19 6 138 -139 0
8 -19 6 -138 140 0
8 -19 6 -138 -140 0
-14 -4 -16 141 142 0
-14 -4 -16 141 -142 0
-14 -4 -16 -141 143 0
-14 -4 -16 -141 -143 0
-4 6 15 144 145 0
-4 6 15 144 -145 0
-4 6 15 -144 146 0
-4 6 15 -144 -146 0
-20 6 2 147 148 0
-20 6 2 147 -148 0
-20 6 2 -147 149 0
-20 6 2 -147 -149 0
-13 9 -2 150 151 0
-13 9 -2 150 -151 0
-13 9 -2 -150 152 0
-13 9 -2 -150 -152 0
7 5 -17 153 154 0
7 5 -17 153 -154 0
7 5 -17 -153 155 0
7 5 -17 -153 -155 0
-4 -13 -16 156 157 0
-4 -13 -16 156 -157 0
-4 -13 -16 -156 158 0
-4 -13 -16 -156 -158 0
2 5 -11 159 160 0
2 5 -11 159 -160 0
2 5 -11 -159 161 0
2 5 -11 -159 -161 0
9 -12 -13 162 163 0
9 -12 -13 162 -163 0
9 -12 -13 -162 164 0
9 -12 -13 -162 -164 0
-13 -6 -1 165 166 0
-13 -6 -1 165 -166 0
-13 -6 -1 -165 167 0
-13 -6 -1 -165 -167 0
19 -16 8 168 169 0
19 -16 8 168 -169 0
19 -16 8 -168 170 0
19 -16 8 -168 -170 0
12 -19 18 171 172 0
12 -19 18 171 -172 0
12 -19 18 -171 173 0
12 -19 18 -171 -173 0
-6 17 -13 174 175 0
-6 17 -13 174 -175 0
-6 17 -13 -174 176 0
-6 17 -13 -174 -176 0
8 -15 10 177 178 0
8 -15 10 177 -178 0
8 -15 10 -177 179 0
8 -15 10 -177 -179 0
-19 -7 12 180 181 0
-19 -7 12 180 -181 0
-19 -7 12 -180 182 0
-19 -7 12 -180 -182 0
10 -17 18 183 184 0
10 -17 18 183 -184 0
10 -17 18 -183 185 0
10 -17 18 -183 -185 0
16 11 20 186 187 0
16 11 20 186 -187 0
16 11 20 -186 188 0
16 11 20 -186 -188 0
9 4 -20 189 190 0
9 4 -20 189 -190 0
9 4 -20 -189 191 0
9 4 -20 -189 -191 0
-13 -4 -8 192 193 0
-13 -4 -8 192 -193 0
-13 -4 -8 -192 194 0
-13 -4 -8 -192 -194 0
11 5 -10 195 196 0
11 5 -10 195 -196 0
11 5 -10 -195 197 0
11 5 -10 -195 -197 0
19 -4 -16 198 199 0
19 -4 -16 198 -199 0
19 -4 -16 -198 200 0
19 -4 -16 -198 -200 0
19 -7 17 201 202 0
19 -7 17 201 -202 0
19 -7 17 -201 203 0
19 -7 17 -201 -203 0
-10 17 4 204 205 0
-10 17 4 204 -205 0
-10 17 4 -204 206 0
-10 17 4 -204 -206 0
-7 9 10 207 208 0
-7 9 10 207 -208 0
-7 9 10 -207 209 0
-7 9 10 -207 -209 0
-10 -11 -8 210 211 0
-10 -11 -8 210 -211 0
-10 -11 -8 -210 212 0
-10 -11 -8 -210 -212 0
-18 -12 -14 213 214 0
-18 -12 -14 213 -214 0
-18 -12 -14 -213 215 0
-18 -12 -14 -213 -215 0
-14 -20 -8 216 217 0
-14 -20 -8 216 -217 0
-14 -20 -8 -216 218 0
-14 -20 -8 -216 -218 0
-5 -9 -15 219 220 0
-5 -9 -15 219 -220 0
-5 -9 -15 -219 221 0
-5 -9 -15 -219 -221 0
6 2 -5 222 223 0
6 2 -5 222 -223 0
6 2 -5 -222 224 0
6 2 -5 -222 -224 0
-19 16 -14 225 226 0
-19 16 -14 225 -226 0
-19 16 -14 -225 227 0
-19 16 -14 -225 -227 0
-3 -7 -4 228 229 0
-3 -7 -4 228 -229 0
-3 -7 -4 -228 230 0
-3 -7 -4 -228 -230 0
11 -19 -2 231 232 0
11 -19 -2 231 -232 0
11 -19 -2 -231 233 0
11 -19 -2 -231 -233 0
9 -19 8 234 235 0
9 -19 8 234 -235 0
9 -19 8 -234 236 0
9 -19 8 -234 -236 0
-13 14 -11 237 238 0
-13 14 -11 237 -238 0
-13 14 -11 -237 239 0
-13 14 -11 -237 -239 0
12 -1 15 240 241 0
12 -1 15 240 -241 0
12 -1 15 -240 242 0
12 -1 15 -240 -242 0
-16 10 -19 243 244 0
-16 10 -19 243 -244 0
-16 10 -19 -243 245 0
-16 10 -19 -243 -245 0
3 -7 16 246 247 0
3 -7 16 246 -247 0
3 -7 16 -246 248 0
3 -7 16 -246 -248 0
17 16 -4 249 250 0
17 16 -4 249 -250 0
17 16 -4 -249 251 0
17 16 -4 -249 -251 0
2 12 14 252 253 0
2 12 14 252 -253 0
2 12 14 -252 254 0
2 12 14 -252 -254 0
-4 5 10 255 256 0
-4 5 10 255 -256 0
-4 5 10 -255 257 0
-4 5 10 -255 -257 0
12 18 -4 258 259 0
12 18 -4 258 -259 0
12 18 -4 -258 260 0
12 18 -4 -258 -260 0
-7 13 -12 261 262 0
-7 13 -12 261 -262 0
-7 13 -12 -261 263 0
-7 13 -12 -261 -263 0
-10 -6 -16 264 265 0
-10 -6 -16 264 -265 0
-10 -6 -16 -264 266 0
-10 -6 -16 -264 -266 0
10 -14 -8 267 268 0
10 -14 -8 267 -268 0
10 -14 -8 -267 269 0
10 -14 -8 -267 -269 0
-8 -1 3 270 271 0
-8 -1 3 270 -271 0
-8 -1 3 -270 272 0
-8 -1 3 -270 -272 0
2 -9 -8 273 274 0
2 -9 -8 273 -274 0
2 -9 -8 -273 275 0
2 -9 -8 -273 -275 0
-2 -18 -6 276 277 0
-2 -18 -6 276 -277 0
-2 -18 -6 -276 278 0
-2 -18 -6 -276 -278 0
13 -2 -20 279 280 0
13 -2 -20 279 -280 0
13 -2 -20 -279 281 0
13 -2 -20 -279 -281 0
6 5 -14 282 283 0
6 5 -14 282 -283 0
6 5 -14 -282 284 0
6 5 -14 -282 -284 0
-16 4 14 285 286 0
-16 4 14 285 -286 0
-16 4 14 -285 287 0
-16 4 14 -285 -287 0
-14 9 10 288 289 0
-14 9 10 288 -289 0
-14 9 10 -288 290 0
-14 9 10 -288 -290 0
-20 18 9 291 292 0
-20 18 9 291 -292 0
-20 18 9 -291 293 0
-20 18 9 -291 -293 0
294 295 297 301 309 0
294 295 297 301 -309 0
294 295 297 -301 310 0
294 295 297 -301 -310 0
294 295 -297 302 311 0
294 295 -297 302 -311 0
294 295 -297 -302 312 0
294 295 -297 -302 -312 0
294 -295 298 303 313 0
294 -295 298 303 -313 0
294 -295 298 -303 314 0
294 -295 298 -303 -314 0
294 -295 -298 304 315 0
294 -295 -298 304 -315 0
294 -295 -298 -304 316 0
294 -295 -298 -304 -316 0
-294 296 299 305 317 0
-294 296 299 305 -317 0
-294 296 299 -305 318 0
-294 296 299 -305 -318 0
-294 296 -299 306 319 0
-294 296 -299 306 -319 0
-294 296 -299 -306 320 0
-294 296 -299 -306 -320 0
-294 -296 300 307 321 0
-294 -296 300 307 -321 0
-294 -296 300 -307 322 0
-294 -296 300 -307 -322 0
-294 -296 -300 308 323 0
-294 -296 -300 308 -323 0
-294 -296 -300 -308 324 0
-294 -296 -300 -308 -324 0
325 326 328 332 340 0
325 326 328 332 -340 0
325 326 328 -332 341 0
325 326 328 -332 -341 0
325 326 -328 333 342 0
325 326 -328 333 -342 0
325 326 -328 -333 343 0
325 326 -328 -333 -343 0
325 -326 329 334 344 0
325 -326 329 334 -344 0
325 -326 329 -334 345 0
325 -326 329 -334 -345 0
325 -326 -329 335 346 0
325 -326 -329 335 -346 0
325 -326 -329 -335 347 0
325 -326 -329 -335 -347 0
-325 327 330 336 348 0
-325 327 330 336 -348 0
-325 327 330 -336 349 0
-325 327 330 -336 -349 0
-325 327 -330 337 350 0
-325 327 -330 337 -350 0
-325 327 -330 -337 351 0
-325 327 -330 -337 -351 0
-325 -327 331 338 352 0
-325 -327 331 338 -352 0
-325 -327 331 -338 353 0
-325 -327 331 -338 -353 0
-325 -327 -331 339 354 0
-325 -327 -331 339 -354 0
-325 -327 -331 -339 355 0
-325 -327 -331 -339 -355 0
356 357 359 363 371 0
356 357 359 363 -371 0
356 357 359 -363 372 0
356 357 359 -363 -372 0
356 357 -359 364 373 0
356 357 -359 364 -373 0
356 357 -359 -364 374 0
356 357 -359 -364 -374 0
356 -357 360 365 375 0
356 -357 360 365 -375 0
356 -357 360 -365 376 0
356 -357 360 -365 -376 0
356 -357 -360 366 377 0
356 -357 -360 366 -377 0
356 -357 -360 -366 378 0
356 -357 -360 -366 -378 0
-356 358 361 367 379 0
-356 358 361 367 -379 0
-356 358 361 -367 380 0
-356 358 361 -367 -380 0
-356 358 -361 368 381 0
-356 358 -361 368 -381 0
-356 358 -361 -368 382 0
-356 358 -361 -368 -382 0
-356 -358 362 369 383 0
-356 -358 362 369 -383 0
-356 -358 362 -369 384 0
-356 -358 362 -369 -384 0
-356 -358 -362 370 385 0
-356 -358 -362 370 -385 0
-356 -358 -362 -370 386 0
-356 -358 -362 -370 -386 0

